min: c;

c = 3.57486445087889 * u2_t7_h3 + 3.01334083524423 * u2_t7_h4 + 3.84325149399339 * u2_t2_h5 + 3.84325149399339 * u2_t3_h5 + 3.84325149399339 * u2_t7_h5 + 4.09028898550256 * u2_t2_h6 + 4.09028898550256 * u2_t3_h6 + 4.09028898550256 * u2_t4_h6 + 4.09028898550256 * u2_t7_h6 + 4.09028898550256 * u2_t10_h6 + 4.57705706754142 * u2_t2_h7 + 4.57705706754142 * u2_t3_h7 + 4.57705706754142 * u2_t4_h7 + 4.57705706754142 * u2_t7_h7 + 4.57705706754142 * u2_t10_h7 + 5.05826384220985 * u2_t2_h8 + 5.05826384220985 * u2_t3_h8 + 5.05826384220985 * u2_t4_h8 + 5.05826384220985 * u2_t7_h8 + 5.05826384220985 * u2_t10_h8 + 5.21863769073631 * u2_t2_h9 + 5.21863769073631 * u2_t3_h9 + 5.21863769073631 * u2_t4_h9 + 5.21863769073631 * u2_t7_h9 + 5.21863769073631 * u2_t10_h9 + 5.58366580571975 * u2_t2_h10 + 5.58366580571975 * u2_t3_h10 + 5.58366580571975 * u2_t4_h10 + 5.58366580571975 * u2_t7_h10 + 5.58366580571975 * u2_t10_h10 + 3.62820436404394 * u2_t1_h11 + 3.62820436404394 * u2_t2_h11 + 3.62820436404394 * u2_t3_h11 + 3.62820436404394 * u2_t4_h11 + 3.62820436404394 * u2_t7_h11 + 3.62820436404394 * u2_t10_h11 + 5.862280133962 * u2_t1_h12 + 5.862280133962 * u2_t3_h12 + 5.862280133962 * u2_t4_h12 + 5.862280133962 * u2_t7_h12 + 4.17694879903379 * u2_t1_h13 + 4.17694879903379 * u2_t3_h13 + 4.17694879903379 * u2_t4_h13 + 4.17694879903379 * u2_t7_h13 + 4.17694879903379 * u2_t9_h13 + 5.23086789175333 * u2_t1_h14 + 5.23086789175333 * u2_t3_h14 + 5.23086789175333 * u2_t4_h14 + 5.23086789175333 * u2_t7_h14 + 5.23086789175333 * u2_t9_h14 + 6.33690924030496 * u2_t1_h15 + 6.33690924030496 * u2_t3_h15 + 6.33690924030496 * u2_t4_h15 + 6.33690924030496 * u2_t7_h15 + 6.33690924030496 * u2_t9_h15 + 5.46234771391532 * u2_t1_h16 + 5.46234771391532 * u2_t3_h16 + 5.46234771391532 * u2_t4_h16 + 5.46234771391532 * u2_t7_h16 + 5.46234771391532 * u2_t9_h16 + 6.75264610786601 * u2_t1_h17 + 6.75264610786601 * u2_t3_h17 + 6.75264610786601 * u2_t4_h17 + 6.75264610786601 * u2_t7_h17 + 6.75264610786601 * u2_t9_h17 + 6.27548944937475 * u2_t1_h18 + 6.27548944937475 * u2_t3_h18 + 6.27548944937475 * u2_t4_h18 + 6.27548944937475 * u2_t6_h18 + 6.27548944937475 * u2_t7_h18 + 5.93533432707165 * u2_t1_h19 + 5.93533432707165 * u2_t3_h19 + 5.93533432707165 * u2_t4_h19 + 5.93533432707165 * u2_t5_h19 + 5.93533432707165 * u2_t6_h19 + 5.93533432707165 * u2_t7_h19 + 6.0044169087517 * u2_t1_h20 + 6.0044169087517 * u2_t3_h20 + 6.0044169087517 * u2_t4_h20 + 6.0044169087517 * u2_t6_h20 + 6.0044169087517 * u2_t7_h20 + 5.75106209641017 * u2_t1_h21 + 5.75106209641017 * u2_t3_h21 + 5.75106209641017 * u2_t6_h21 + 5.75106209641017 * u2_t7_h21 + 5.75106209641017 * u2_t8_h21 + 5.17056017734889 * u2_t1_h22 + 5.17056017734889 * u2_t3_h22 + 5.17056017734889 * u2_t7_h22 + 5.17056017734889 * u2_t8_h22 + 5.44473336209933 * u2_t3_h23 + 5.44473336209933 * u2_t7_h23 + 5.44473336209933 * u2_t8_h23;
0 <= u2_t1_h11 <= 1;
0 <= u2_t1_h12 <= 1;
0 <= u2_t1_h13 <= 1;
0 <= u2_t1_h14 <= 1;
0 <= u2_t1_h15 <= 1;
0 <= u2_t1_h16 <= 1;
0 <= u2_t1_h17 <= 1;
0 <= u2_t1_h18 <= 1;
0 <= u2_t1_h19 <= 1;
0 <= u2_t1_h20 <= 1;
0 <= u2_t1_h21 <= 1;
0 <= u2_t1_h22 <= 1;
u2_t1_h11 + u2_t1_h12 + u2_t1_h13 + u2_t1_h14 + u2_t1_h15 + u2_t1_h16 + u2_t1_h17 + u2_t1_h18 + u2_t1_h19 + u2_t1_h20 + u2_t1_h21 + u2_t1_h22 = 2;
0 <= u2_t2_h5 <= 1;
0 <= u2_t2_h6 <= 1;
0 <= u2_t2_h7 <= 1;
0 <= u2_t2_h8 <= 1;
0 <= u2_t2_h9 <= 1;
0 <= u2_t2_h10 <= 1;
0 <= u2_t2_h11 <= 1;
u2_t2_h5 + u2_t2_h6 + u2_t2_h7 + u2_t2_h8 + u2_t2_h9 + u2_t2_h10 + u2_t2_h11 = 2;
0 <= u2_t3_h5 <= 1;
0 <= u2_t3_h6 <= 1;
0 <= u2_t3_h7 <= 1;
0 <= u2_t3_h8 <= 1;
0 <= u2_t3_h9 <= 1;
0 <= u2_t3_h10 <= 1;
0 <= u2_t3_h11 <= 1;
0 <= u2_t3_h12 <= 1;
0 <= u2_t3_h13 <= 1;
0 <= u2_t3_h14 <= 1;
0 <= u2_t3_h15 <= 1;
0 <= u2_t3_h16 <= 1;
0 <= u2_t3_h17 <= 1;
0 <= u2_t3_h18 <= 1;
0 <= u2_t3_h19 <= 1;
0 <= u2_t3_h20 <= 1;
0 <= u2_t3_h21 <= 1;
0 <= u2_t3_h22 <= 1;
0 <= u2_t3_h23 <= 1;
u2_t3_h5 + u2_t3_h6 + u2_t3_h7 + u2_t3_h8 + u2_t3_h9 + u2_t3_h10 + u2_t3_h11 + u2_t3_h12 + u2_t3_h13 + u2_t3_h14 + u2_t3_h15 + u2_t3_h16 + u2_t3_h17 + u2_t3_h18 + u2_t3_h19 + u2_t3_h20 + u2_t3_h21 + u2_t3_h22 + u2_t3_h23 = 1;
0 <= u2_t4_h6 <= 1;
0 <= u2_t4_h7 <= 1;
0 <= u2_t4_h8 <= 1;
0 <= u2_t4_h9 <= 1;
0 <= u2_t4_h10 <= 1;
0 <= u2_t4_h11 <= 1;
0 <= u2_t4_h12 <= 1;
0 <= u2_t4_h13 <= 1;
0 <= u2_t4_h14 <= 1;
0 <= u2_t4_h15 <= 1;
0 <= u2_t4_h16 <= 1;
0 <= u2_t4_h17 <= 1;
0 <= u2_t4_h18 <= 1;
0 <= u2_t4_h19 <= 1;
0 <= u2_t4_h20 <= 1;
u2_t4_h6 + u2_t4_h7 + u2_t4_h8 + u2_t4_h9 + u2_t4_h10 + u2_t4_h11 + u2_t4_h12 + u2_t4_h13 + u2_t4_h14 + u2_t4_h15 + u2_t4_h16 + u2_t4_h17 + u2_t4_h18 + u2_t4_h19 + u2_t4_h20 = 3;
0 <= u2_t5_h19 <= 1;
u2_t5_h19 = 1;
0 <= u2_t6_h18 <= 1;
0 <= u2_t6_h19 <= 1;
0 <= u2_t6_h20 <= 1;
0 <= u2_t6_h21 <= 1;
u2_t6_h18 + u2_t6_h19 + u2_t6_h20 + u2_t6_h21 = 2;
0 <= u2_t7_h3 <= 1;
0 <= u2_t7_h4 <= 1;
0 <= u2_t7_h5 <= 1;
0 <= u2_t7_h6 <= 1;
0 <= u2_t7_h7 <= 1;
0 <= u2_t7_h8 <= 1;
0 <= u2_t7_h9 <= 1;
0 <= u2_t7_h10 <= 1;
0 <= u2_t7_h11 <= 1;
0 <= u2_t7_h12 <= 1;
0 <= u2_t7_h13 <= 1;
0 <= u2_t7_h14 <= 1;
0 <= u2_t7_h15 <= 1;
0 <= u2_t7_h16 <= 1;
0 <= u2_t7_h17 <= 1;
0 <= u2_t7_h18 <= 1;
0 <= u2_t7_h19 <= 1;
0 <= u2_t7_h20 <= 1;
0 <= u2_t7_h21 <= 1;
0 <= u2_t7_h22 <= 1;
0 <= u2_t7_h23 <= 1;
u2_t7_h3 + u2_t7_h4 + u2_t7_h5 + u2_t7_h6 + u2_t7_h7 + u2_t7_h8 + u2_t7_h9 + u2_t7_h10 + u2_t7_h11 + u2_t7_h12 + u2_t7_h13 + u2_t7_h14 + u2_t7_h15 + u2_t7_h16 + u2_t7_h17 + u2_t7_h18 + u2_t7_h19 + u2_t7_h20 + u2_t7_h21 + u2_t7_h22 + u2_t7_h23 = 3;
0 <= u2_t8_h21 <= 1;
0 <= u2_t8_h22 <= 1;
0 <= u2_t8_h23 <= 1;
u2_t8_h21 + u2_t8_h22 + u2_t8_h23 = 2;
0 <= u2_t9_h13 <= 1;
0 <= u2_t9_h14 <= 1;
0 <= u2_t9_h15 <= 1;
0 <= u2_t9_h16 <= 1;
0 <= u2_t9_h17 <= 1;
u2_t9_h13 + u2_t9_h14 + u2_t9_h15 + u2_t9_h16 + u2_t9_h17 = 1;
0 <= u2_t10_h6 <= 1;
0 <= u2_t10_h7 <= 1;
0 <= u2_t10_h8 <= 1;
0 <= u2_t10_h9 <= 1;
0 <= u2_t10_h10 <= 1;
0 <= u2_t10_h11 <= 1;
u2_t10_h6 + u2_t10_h7 + u2_t10_h8 + u2_t10_h9 + u2_t10_h10 + u2_t10_h11 = 2;
